28 28
22
3 3 17 9
3 4 6 0
3 5 3 0
3 6 6 14
3 7 25 21
3 8 10 20
3 9 22 0
3 10 6 4
3 11 0 17
3 16 17 12
3 17 0 0
3 21 25 0
3 23 3 5
4 3 9 13
4 4 9 16
4 5 13 0
4 8 6 20
4 13 9 0
4 23 13 5
5 6 20 22
5 9 17 0
5 13 20 9
% time elapsed: 20.92 s
% time elapsed: 20.92 s
%%%mzn-stat: initTime=0.000381
%%%mzn-stat: solveTime=20.8201
%%%mzn-stat: solutions=78
%%%mzn-stat: variables=45
%%%mzn-stat: propagators=27
%%%mzn-stat: propagations=11814108
%%%mzn-stat: nodes=2340380
%%%mzn-stat: failures=1167571
%%%mzn-stat: restarts=229
%%%mzn-stat: peakDepth=66
%%%mzn-stat-end
